letting n_nurses=25
letting n_days=7
letting n_shift_types=4
letting max_covers=15
letting t_covers=87
letting covers=[0,13,2,0,2,15,1,0,14,3,0,0,15,3,0,0,1,5,0,0,6,0,1,0,1,0,5,0]
letting prefes=[2,2,2,2,2,1,1,3,4,2,2,2,4,2,2,2,4,2,2,2,2,1,1,3,2,1,1,3,2,1,2,2,1,2,1,1,4,1,1,1,4,1,1,1,4,1,1,1,1,2,1,1,1,2,1,1,2,1,2,2,1,1,1,1,1,1,1,1,1,1,1,1,1,1,1,1,1,1,1,1,1,1,1,1,2,1,2,2,1,1,1,1,1,1,1,1,1,1,1,1,1,1,1,1,1,1,1,1,1,1,1,1,2,1,2,2,1,1,1,1,4,2,2,2,4,2,2,2,4,2,2,2,1,1,1,1,1,1,1,1,2,4,2,2,1,2,1,1,4,2,2,2,4,2,2,2,4,2,2,2,1,2,1,1,1,2,1,1,2,2,2,2,1,2,3,1,1,1,1,1,1,1,1,1,1,1,1,1,1,2,3,1,1,2,3,1,2,1,2,2,2,1,1,3,4,1,1,1,4,1,1,1,4,1,1,1,2,1,1,3,2,1,1,3,2,1,2,2,1,2,1,1,4,1,1,1,4,1,1,1,4,1,1,1,1,2,1,1,1,2,1,1,1,1,1,1,1,1,1,1,4,1,1,1,4,1,1,1,4,1,1,1,1,1,1,1,1,1,1,1,2,1,2,2,1,1,1,1,4,1,1,1,4,1,1,1,4,1,1,1,1,1,1,1,1,1,1,1,1,1,1,1,1,1,3,3,4,2,2,2,4,2,2,2,4,2,2,2,1,1,3,3,1,1,3,3,1,1,1,1,1,1,1,1,4,1,1,1,4,1,1,1,4,1,1,1,1,1,1,1,1,1,1,1,2,1,2,2,1,1,1,3,1,1,1,1,1,1,1,1,1,1,1,1,1,1,1,3,1,1,1,3,2,1,2,2,1,1,1,1,1,1,1,1,1,1,1,1,1,1,1,1,1,1,1,1,1,1,1,1,2,1,2,2,1,1,1,3,4,1,1,1,4,1,1,1,4,1,1,1,1,1,1,3,1,1,1,3,2,1,2,2,1,2,1,1,4,1,1,1,4,1,1,1,4,1,1,1,1,2,1,1,1,2,1,1,2,4,2,2,2,1,1,1,4,1,1,1,4,1,1,1,4,1,1,1,2,1,1,1,2,1,1,1,2,1,2,2,1,1,1,1,4,1,1,1,4,1,1,1,4,1,1,1,1,1,1,1,1,1,1,1,2,1,2,2,2,1,3,1,4,1,1,1,4,1,1,1,4,1,1,1,2,1,3,1,2,1,3,1,2,1,2,2,1,1,1,1,4,1,1,1,4,1,1,1,4,1,1,1,1,1,1,1,1,1,1,1,2,1,2,2,1,1,1,1,4,2,2,2,4,2,2,2,4,2,2,2,1,1,1,1,1,1,1,1,2,4,2,2,1,1,1,1,4,1,1,1,4,1,1,1,4,1,1,1,1,1,1,1,1,1,1,1,1,1,1,1,1,1,3,1,4,1,1,1,4,1,1,1,4,1,1,1,1,1,3,1,1,1,3,1,1,1,1,1,2,1,3,1,4,1,1,1,4,1,1,1,4,1,1,1,2,1,3,1,2,1,3,1]
letting ub =  247
